<number of tasks>
58

<cycle time>
60

<task times>
1 10
2 53
3 41
4 36
5 35
6 17
7 34
8 23
9 14
10 52
11 33
12 34
13 12
14 52
15 12
16 33
17 44
18 7
19 15
20 13
21 29
22 37
23 43
24 23
25 24
26 9
27 16
28 12
29 26
30 22
31 51
32 47
33 34
34 23
35 12
36 52
37 12
38 33
39 44
40 7
41 15
42 13
43 29
44 37
45 43
46 23
47 24
48 9
49 16
50 12
51 26
52 12
53 52
54 12
55 33
56 44
57 7
58 15

<precedence relations>
1,9
2,25
3,21
3,22
4,10
5,36
6,23
6,24
7,43
8,44
9,11
11,13
11,14
11,15
12,17
13,17
14,17
15,17
16,18
17,20
18,19
19,23
20,21
20,25
21,26
21,44
22,27
23,31
24,31
25,38
26,29
27,30
28,32
28,33
29,31
30,34
31,36
32,45
33,35
34,36
35,43
36,37
36,38
37,39
37,40
37,41
38,52
39,43
40,43
41,42
42,43
43,45
44,45
45,46
45,48
45,49
46,47
46,50
47,51
48,55
49,58
50,58
51,52
52,53
53,54
54,55
54,56
55,57
56,57
57,58

<setup times forward>
1,2:7
1,3:2
1,4:4
1,5:2
1,7:6
1,8:5
1,9:5
1,10:4
1,12:1
1,18:2
1,19:2
1,22:3
1,24:3
1,28:5
1,30:3
1,32:4
1,33:6
1,34:2
1,35:1
2,1:7
2,3:9
2,4:11
2,5:5
2,6:7
2,7:1
2,8:12
2,9:12
2,10:3
2,11:12
2,12:8
2,13:8
2,14:5
2,15:8
2,16:7
2,17:3
2,18:5
2,19:9
2,20:3
2,21:10
2,22:4
2,23:7
2,24:4
2,25:1
2,26:10
2,27:7
2,28:12
2,29:1
2,30:10
2,31:6
2,32:11
2,33:1
2,34:5
2,35:6
2,36:9
2,37:11
2,39:6
2,41:8
2,42:8
2,43:8
2,44:12
2,45:11
2,46:11
2,47:10
2,48:6
2,49:11
2,50:6
2,51:6
3,1:2
3,2:9
3,4:2
3,5:4
3,6:2
3,7:8
3,8:3
3,9:3
3,10:6
3,11:3
3,12:1
3,13:1
3,14:4
3,15:1
3,16:2
3,17:6
3,18:4
3,20:6
3,21:1
3,22:5
3,23:2
3,24:5
3,25:8
3,28:3
3,32:2
3,33:8
3,35:3
4,1:4
4,2:11
4,3:2
4,5:6
4,6:4
4,7:10
4,8:1
4,9:1
4,10:8
4,11:1
4,12:3
4,13:3
4,14:6
4,15:3
4,16:4
4,17:8
4,18:6
4,19:2
4,20:8
4,21:1
4,22:7
4,23:4
4,24:7
4,25:10
4,26:1
4,27:4
4,28:1
4,29:10
4,30:1
4,31:5
4,33:10
4,34:6
4,35:5
4,36:2
4,38:1
4,39:5
4,40:11
4,41:3
4,42:3
4,43:3
4,44:1
4,47:1
4,48:5
4,50:5
4,51:5
4,52:5
4,53:6
4,54:9
4,55:11
4,56:9
4,57:11
4,58:11
5,1:2
5,2:5
5,3:4
5,4:6
5,6:2
5,7:4
5,8:7
5,9:7
5,10:2
5,11:7
5,12:3
5,13:3
5,15:3
5,16:2
5,17:2
5,19:4
5,20:2
5,21:5
5,22:1
5,23:2
5,24:1
5,25:4
5,26:5
5,27:2
5,28:7
5,29:4
5,30:5
5,31:1
5,32:6
5,33:4
5,35:1
5,36:4
5,44:7
6,2:7
6,3:2
6,4:4
6,5:2
6,7:6
6,8:5
6,9:5
6,10:4
6,11:5
6,12:1
6,13:1
6,14:2
6,15:1
6,17:4
6,18:2
6,19:2
6,20:4
6,21:3
6,22:3
6,24:3
6,25:6
6,26:3
6,28:5
6,29:6
6,30:3
6,32:4
6,33:6
6,34:2
6,35:1
6,44:5
7,1:6
7,2:1
7,3:8
7,4:10
7,5:4
7,6:6
7,8:11
7,9:11
7,10:2
7,11:11
7,12:7
7,13:7
7,14:4
7,15:7
7,16:6
7,17:2
7,18:4
7,19:8
7,20:2
7,21:9
7,22:3
7,23:6
7,24:3
7,26:9
7,27:6
7,28:11
7,30:9
7,31:5
7,32:10
7,34:4
7,35:5
7,36:8
7,37:10
7,38:9
7,39:5
7,40:1
7,41:7
7,42:7
7,43:7
7,44:11
8,1:5
8,2:12
8,3:3
8,4:1
8,5:7
8,6:5
8,7:11
8,10:9
8,12:4
8,13:4
8,14:7
8,15:4
8,16:5
8,17:9
8,18:7
8,19:3
8,20:9
8,21:2
8,22:8
8,23:5
8,24:8
8,25:11
8,26:2
8,27:5
8,29:11
8,30:2
8,31:6
8,32:1
8,33:11
8,34:7
8,35:6
8,36:3
8,37:1
8,38:2
8,39:6
8,40:12
8,41:4
8,42:4
8,43:4
9,2:12
9,3:3
9,4:1
9,5:7
9,6:5
9,7:11
9,10:9
9,12:4
9,16:5
9,18:7
9,19:3
9,22:8
9,23:5
9,24:8
9,27:5
9,30:2
9,32:1
9,33:11
9,34:7
9,35:6
10,1:4
10,2:3
10,3:6
10,5:2
10,6:4
10,7:2
10,8:9
10,9:9
10,11:9
10,12:5
10,13:5
10,14:2
10,15:5
10,16:4
10,18:2
10,19:6
10,21:7
10,22:1
10,23:4
10,24:1
10,25:2
10,26:7
10,27:4
10,28:9
10,29:2
10,30:7
10,31:3
10,32:8
10,33:2
10,34:2
10,35:3
10,36:6
10,37:8
10,38:7
10,39:3
10,40:3
10,41:5
10,42:5
10,43:5
10,44:9
10,45:8
10,46:8
10,47:7
10,48:3
10,49:8
10,50:3
10,51:3
10,52:3
10,53:2
10,54:1
10,55:3
10,56:1
10,57:3
10,58:3
11,2:12
11,3:3
11,4:1
11,5:7
11,6:5
11,7:11
11,10:9
11,12:4
11,13:4
11,14:7
11,15:4
11,16:5
11,18:7
11,19:3
11,22:8
11,23:5
11,24:8
11,27:5
11,30:2
11,32:1
11,33:11
11,34:7
11,35:6
12,1:1
12,2:8
12,3:1
12,4:3
12,5:3
12,6:1
12,7:7
12,8:4
12,9:4
12,10:5
12,11:4
12,14:3
12,16:1
12,17:5
12,18:3
12,19:1
12,22:4
12,23:1
12,24:4
12,27:1
12,28:4
12,30:2
12,32:3
12,33:7
12,34:3
12,35:2
13,2:8
13,3:1
13,4:3
13,5:3
13,6:1
13,7:7
13,8:4
13,10:5
13,14:3
13,16:1
13,17:5
13,18:3
13,19:1
13,22:4
13,23:1
13,24:4
13,27:1
13,28:4
13,30:2
13,32:3
13,33:7
13,34:3
13,35:2
14,2:5
14,3:4
14,4:6
14,6:2
14,7:4
14,8:7
14,10:2
14,12:3
14,13:3
14,15:3
14,16:2
14,17:2
14,19:4
14,22:1
14,23:2
14,24:1
14,27:2
14,28:7
14,30:5
14,32:6
14,33:4
14,35:1
15,2:8
15,3:1
15,4:3
15,5:3
15,6:1
15,7:7
15,8:4
15,10:5
15,14:3
15,16:1
15,17:5
15,18:3
15,19:1
15,22:4
15,23:1
15,24:4
15,27:1
15,28:4
15,30:2
15,32:3
15,33:7
15,34:3
15,35:2
16,2:7
16,3:2
16,4:4
16,5:2
16,7:6
16,8:5
16,9:5
16,10:4
16,11:5
16,12:1
16,13:1
16,14:2
16,15:1
16,17:4
16,18:2
16,20:4
16,21:3
16,22:3
16,24:3
16,25:6
16,26:3
16,28:5
16,29:6
16,30:3
16,32:4
16,33:6
16,34:2
16,35:1
16,44:5
17,2:3
17,3:6
17,4:8
17,5:2
17,6:4
17,7:2
17,8:9
17,16:4
17,18:2
17,19:6
17,22:1
17,23:4
17,24:1
17,27:4
17,28:9
17,30:7
17,32:8
17,33:2
17,34:2
17,35:3
18,1:2
18,2:5
18,3:4
18,4:6
18,6:2
18,7:4
18,8:7
18,9:7
18,10:2
18,11:7
18,12:3
18,13:3
18,15:3
18,17:2
18,19:4
18,20:2
18,21:5
18,22:1
18,24:1
18,25:4
18,26:5
18,27:2
18,28:7
18,29:4
18,30:5
18,32:6
18,33:4
18,35:1
18,44:7
19,1:2
19,2:9
19,4:2
19,5:4
19,6:2
19,7:8
19,8:3
19,9:3
19,10:6
19,11:3
19,12:1
19,13:1
19,14:4
19,15:1
19,17:6
19,20:6
19,21:1
19,22:5
19,23:2
19,24:5
19,25:8
19,26:1
19,27:2
19,28:3
19,29:8
19,30:1
19,32:2
19,33:8
19,34:4
19,35:3
19,44:3
20,2:3
20,3:6
20,4:8
20,5:2
20,6:4
20,7:2
20,8:9
20,16:4
20,18:2
20,19:6
20,21:7
20,22:1
20,23:4
20,24:1
20,25:2
20,27:4
20,28:9
20,30:7
20,32:8
20,33:2
20,34:2
20,35:3
21,2:10
21,4:1
21,5:5
21,6:3
21,7:9
21,8:2
21,10:7
21,16:3
21,18:5
21,19:1
21,22:6
21,23:3
21,24:6
21,25:9
21,27:3
21,28:2
21,32:1
21,33:9
21,34:5
21,35:4
21,44:2
22,1:3
22,2:4
22,4:7
22,5:1
22,6:3
22,7:3
22,8:8
22,9:8
22,10:1
22,11:8
22,12:4
22,13:4
22,14:1
22,15:4
22,16:3
22,17:1
22,18:1
22,19:5
22,20:1
22,21:6
22,23:3
22,25:3
22,26:6
22,27:3
22,28:8
22,29:3
22,31:2
22,32:7
22,33:3
22,35:2
22,44:8
23,2:7
23,3:2
23,4:4
23,5:2
23,7:6
23,8:5
23,9:5
23,10:4
23,11:5
23,12:1
23,13:1
23,14:2
23,15:1
23,17:4
23,20:4
23,21:3
23,22:3
23,24:3
23,25:6
23,26:3
23,28:5
23,29:6
23,30:3
23,31:1
23,32:4
23,33:6
23,34:2
23,35:1
23,44:5
24,1:3
24,2:4
24,3:5
24,4:7
24,5:1
24,7:3
24,8:8
24,9:8
24,10:1
24,11:8
24,12:4
24,13:4
24,14:1
24,15:4
24,16:3
24,17:1
24,18:1
24,19:5
24,20:1
24,21:6
24,23:3
24,25:3
24,26:6
24,27:3
24,28:8
24,29:3
24,30:6
24,31:2
24,32:7
24,33:3
24,34:1
24,35:2
24,44:8
25,3:8
25,4:10
25,5:4
25,6:6
25,8:11
25,10:2
25,16:6
25,18:4
25,19:8
25,21:9
25,22:3
25,23:6
25,24:3
25,26:9
25,27:6
25,28:11
25,30:9
25,31:5
25,32:10
25,34:4
25,35:5
25,36:8
25,37:10
25,38:9
25,39:5
25,40:1
25,41:7
25,42:7
25,43:7
25,44:11
25,45:10
25,46:10
25,47:9
25,48:5
25,49:10
25,50:5
25,51:5
26,2:10
26,4:1
26,5:5
26,6:3
26,7:9
26,8:2
26,10:7
26,16:3
26,18:5
26,19:1
26,22:6
26,23:3
26,24:6
26,25:9
26,27:3
26,28:2
26,29:9
26,32:1
26,33:9
26,34:5
26,35:4
26,44:2
27,2:7
27,4:4
27,5:2
27,7:6
27,8:5
27,9:5
27,10:4
27,11:5
27,12:1
27,13:1
27,14:2
27,15:1
27,17:4
27,18:2
27,19:2
27,20:4
27,21:3
27,24:3
27,25:6
27,26:3
27,28:5
27,29:6
27,30:3
27,31:1
27,32:4
27,33:6
27,35:1
27,44:5
28,1:5
28,2:12
28,3:3
28,4:1
28,5:7
28,6:5
28,7:11
28,10:9
28,12:4
28,13:4
28,14:7
28,15:4
28,16:5
28,17:9
28,18:7
28,19:3
28,20:9
28,21:2
28,22:8
28,23:5
28,24:8
28,25:11
28,26:2
28,27:5
28,29:11
28,30:2
28,31:6
28,32:1
28,33:11
28,34:7
28,36:3
28,37:1
28,38:2
28,39:6
28,40:12
28,41:4
28,42:4
29,2:1
29,4:10
29,5:4
29,6:6
29,8:11
29,10:2
29,16:6
29,18:4
29,19:8
29,22:3
29,23:6
29,24:3
29,27:6
29,28:11
29,30:9
29,31:5
29,32:10
29,34:4
29,35:5
29,44:11
30,1:3
30,2:10
30,4:1
30,5:5
30,6:3
30,7:9
30,8:2
30,9:2
30,10:7
30,11:2
30,12:2
30,13:2
30,14:5
30,15:2
30,16:3
30,17:7
30,18:5
30,19:1
30,20:7
30,23:3
30,24:6
30,25:9
30,28:2
30,29:9
30,31:4
30,32:1
30,33:9
30,34:5
30,35:4
30,44:2
31,2:6
31,4:5
31,5:1
31,7:5
31,8:6
31,10:3
31,22:2
31,25:5
31,27:1
31,28:6
31,30:4
31,32:5
31,33:5
31,34:1
31,36:3
31,44:6
32,1:4
32,2:11
32,3:2
32,5:6
32,6:4
32,7:10
32,8:1
32,9:1
32,10:8
32,11:1
32,12:3
32,13:3
32,14:6
32,15:3
32,16:4
32,17:8
32,18:6
32,19:2
32,20:8
32,21:1
32,22:7
32,23:4
32,24:7
32,25:10
32,26:1
32,27:4
32,29:10
32,30:1
32,31:5
32,33:10
32,34:6
32,35:5
32,36:2
32,38:1
32,39:5
32,40:11
32,41:3
32,42:3
32,43:3
32,44:1
33,1:6
33,2:1
33,3:8
33,4:10
33,5:4
33,6:6
33,8:11
33,9:11
33,10:2
33,11:11
33,12:7
33,13:7
33,14:4
33,15:7
33,16:6
33,17:2
33,18:4
33,19:8
33,20:2
33,21:9
33,22:3
33,23:6
33,24:3
33,26:9
33,27:6
33,30:9
33,31:5
33,32:10
33,34:4
33,35:5
33,36:8
33,37:10
33,38:9
33,39:5
33,40:1
33,41:7
33,42:7
33,44:11
34,1:2
34,2:5
34,4:6
34,6:2
34,7:4
34,8:7
34,9:7
34,10:2
34,11:7
34,12:3
34,13:3
34,15:3
34,16:2
34,17:2
34,19:4
34,20:2
34,21:5
34,23:2
34,24:1
34,25:4
34,26:5
34,28:7
34,29:4
34,31:1
34,32:6
34,33:4
34,35:1
34,36:4
34,44:7
35,1:1
35,2:6
35,3:3
35,4:5
35,5:1
35,6:1
35,7:5
35,8:6
35,9:6
35,10:3
35,11:6
35,12:2
35,13:2
35,14:1
35,15:2
35,16:1
35,17:3
35,18:1
35,19:3
35,20:3
35,21:4
35,22:2
35,23:1
35,24:2
35,25:5
35,26:4
35,27:1
35,29:5
35,30:4
35,32:5
35,34:1
35,36:3
35,37:5
35,38:4
35,40:6
35,41:2
35,42:2
35,43:2
35,44:6
36,2:9
36,4:2
36,7:8
36,8:3
36,10:6
36,25:8
36,28:3
36,32:2
36,33:8
36,35:3
36,37:2
36,38:1
36,44:3
37,2:11
37,7:10
37,8:1
37,10:8
37,25:10
37,28:1
37,33:10
37,35:5
37,38:1
37,39:5
37,40:11
37,41:3
37,44:1
38,4:1
38,7:9
38,8:2
38,10:7
38,28:2
38,32:1
38,33:9
38,35:4
38,37:1
38,39:4
38,40:10
38,41:2
38,42:2
38,43:2
38,44:2
38,45:1
38,46:1
38,48:4
38,49:1
38,50:4
38,51:4
38,52:4
39,2:6
39,4:5
39,7:5
39,8:6
39,10:3
39,25:5
39,28:6
39,32:5
39,33:5
39,38:4
39,40:6
39,41:2
39,42:2
39,43:2
39,44:6
40,4:11
40,7:1
40,8:12
40,10:3
40,25:1
40,28:12
40,32:11
40,33:1
40,35:6
40,38:10
40,39:6
40,41:8
40,42:8
40,43:8
40,44:12
41,2:8
41,4:3
41,7:7
41,8:4
41,10:5
41,25:7
41,28:4
41,32:3
41,33:7
41,35:2
41,38:2
41,39:2
41,40:8
41,44:4
42,2:8
42,4:3
42,7:7
42,8:4
42,10:5
42,25:7
42,28:4
42,32:3
42,33:7
42,35:2
42,38:2
42,39:2
42,40:8
42,44:4
43,2:8
43,4:3
43,8:4
43,10:5
43,25:7
43,32:3
43,38:2
43,44:4
43,45:3
44,2:12
44,4:1
44,5:7
44,6:5
44,7:11
44,10:9
44,16:5
44,18:7
44,19:3
44,22:8
44,23:5
44,24:8
44,25:11
44,26:2
44,27:5
44,29:11
44,30:2
44,31:6
44,32:1
44,33:11
44,34:7
44,35:6
44,36:3
44,37:1
44,38:2
44,39:6
44,40:12
44,41:4
44,42:4
44,43:4
44,45:1
45,2:11
45,10:8
45,25:10
45,38:1
45,48:5
46,2:11
46,10:8
46,25:10
46,38:1
46,47:1
46,48:5
46,50:5
47,2:10
47,4:1
47,10:7
47,25:9
47,48:4
47,49:1
47,50:4
47,51:4
48,2:6
48,4:5
48,10:3
48,25:5
48,38:4
48,46:5
48,47:4
48,49:5
48,53:1
48,54:4
48,55:6
48,56:4
49,2:11
49,10:8
49,25:10
49,38:1
49,47:1
49,48:5
49,50:5
49,51:5
49,52:5
49,53:6
49,54:9
49,55:11
49,56:9
49,57:11
49,58:11
50,2:6
50,4:5
50,10:3
50,25:5
50,38:4
50,47:4
50,49:5
50,53:1
50,54:4
50,55:6
50,56:4
50,57:6
50,58:6
51,2:6
51,4:5
51,10:3
51,25:5
51,38:4
51,49:5
52,4:5
52,10:3
52,49:5
52,53:1
53,4:6
53,10:2
53,48:1
53,49:6
53,50:1
53,54:3
54,4:9
54,10:1
54,48:4
54,49:9
54,50:4
54,55:2
55,4:11
55,10:3
55,49:11
55,50:6
55,56:2
56,4:9
56,10:1
56,48:4
56,49:9
56,50:4
56,55:2
56,57:2
57,4:11
57,10:3
57,49:11
57,50:6
58,4:11
58,10:3

<setup times backward>
1,2:7
1,5:2
1,7:6
1,10:4
1,18:2
1,22:3
1,24:3
1,33:6
1,34:2
1,35:1
3,1:2
3,2:9
3,5:4
3,6:2
3,7:8
3,10:6
3,12:1
3,13:1
3,14:4
3,15:1
3,16:2
3,17:6
3,18:4
3,20:6
3,23:2
3,24:5
3,25:8
3,33:8
3,35:3
4,1:4
4,2:11
4,3:2
4,5:6
4,6:4
4,7:10
4,12:3
4,13:3
4,14:6
4,15:3
4,16:4
4,17:8
4,18:6
4,19:2
4,20:8
4,21:1
4,22:7
4,23:4
4,24:7
4,25:10
4,26:1
4,27:4
4,29:10
4,30:1
4,31:5
4,33:10
4,34:6
4,35:5
4,36:2
4,38:1
4,39:5
4,40:11
4,41:3
4,42:3
4,43:3
4,47:1
4,48:5
4,50:5
4,51:5
4,52:5
4,53:6
4,54:9
4,55:11
4,56:9
4,57:11
4,58:11
5,2:5
5,7:4
5,10:2
5,17:2
5,20:2
5,22:1
5,24:1
5,25:4
5,29:4
5,33:4
6,2:7
6,5:2
6,7:6
6,10:4
6,14:2
6,17:4
6,18:2
6,20:4
6,22:3
6,25:6
6,29:6
6,33:6
6,34:2
6,35:1
7,2:1
7,40:1
8,1:5
8,2:12
8,3:3
8,4:1
8,5:7
8,6:5
8,7:11
8,10:9
8,12:4
8,13:4
8,14:7
8,15:4
8,16:5
8,17:9
8,18:7
8,19:3
8,20:9
8,21:2
8,22:8
8,23:5
8,24:8
8,25:11
8,26:2
8,27:5
8,29:11
8,30:2
8,31:6
8,32:1
8,33:11
8,34:7
8,35:6
8,36:3
8,37:1
8,38:2
8,39:6
8,40:12
8,41:4
8,42:4
8,43:4
9,1:5
9,2:12
9,3:3
9,4:1
9,5:7
9,6:5
9,7:11
9,10:9
9,12:4
9,16:5
9,18:7
9,19:3
9,22:8
9,23:5
9,24:8
9,27:5
9,30:2
9,32:1
9,33:11
9,34:7
9,35:6
10,2:3
10,7:2
10,25:2
10,29:2
10,33:2
10,40:3
10,54:1
10,55:3
10,56:1
10,57:3
10,58:3
11,1:5
11,2:12
11,3:3
11,4:1
11,5:7
11,6:5
11,7:11
11,10:9
11,12:4
11,16:5
11,18:7
11,19:3
11,22:8
11,23:5
11,24:8
11,27:5
11,30:2
11,32:1
11,33:11
11,34:7
11,35:6
12,1:1
12,2:8
12,5:3
12,6:1
12,7:7
12,10:5
12,14:3
12,16:1
12,18:3
12,22:4
12,23:1
12,24:4
12,27:1
12,33:7
12,34:3
12,35:2
13,1:1
13,2:8
13,5:3
13,6:1
13,7:7
13,10:5
13,14:3
13,16:1
13,18:3
13,22:4
13,23:1
13,24:4
13,27:1
13,33:7
13,34:3
13,35:2
14,2:5
14,7:4
14,10:2
14,22:1
14,24:1
14,33:4
15,1:1
15,2:8
15,5:3
15,6:1
15,7:7
15,10:5
15,14:3
15,16:1
15,18:3
15,22:4
15,23:1
15,24:4
15,27:1
15,33:7
15,34:3
15,35:2
16,2:7
16,5:2
16,7:6
16,10:4
16,14:2
16,17:4
16,20:4
16,22:3
16,24:3
16,25:6
16,29:6
16,33:6
16,34:2
16,35:1
17,2:3
17,7:2
17,33:2
18,2:5
18,7:4
18,10:2
18,17:2
18,20:2
18,22:1
18,24:1
18,25:4
18,29:4
18,33:4
19,1:2
19,2:9
19,5:4
19,6:2
19,7:8
19,10:6
19,12:1
19,13:1
19,14:4
19,15:1
19,16:2
19,17:6
19,18:4
19,20:6
19,22:5
19,24:5
19,25:8
19,27:2
19,29:8
19,33:8
19,34:4
19,35:3
20,2:3
20,7:2
20,33:2
21,1:3
21,2:10
21,3:1
21,5:5
21,6:3
21,7:9
21,10:7
21,12:2
21,13:2
21,14:5
21,15:2
21,16:3
21,17:7
21,18:5
21,19:1
21,20:7
21,22:6
21,23:3
21,24:6
21,25:9
21,27:3
21,33:9
21,34:5
21,35:4
22,2:4
22,7:3
22,10:1
22,17:1
22,20:1
22,25:3
22,29:3
22,33:3
23,2:7
23,5:2
23,7:6
23,10:4
23,14:2
23,17:4
23,18:2
23,20:4
23,22:3
23,24:3
23,25:6
23,29:6
23,33:6
23,34:2
23,35:1
24,2:4
24,7:3
24,10:1
24,17:1
24,20:1
24,25:3
24,29:3
24,33:3
25,2:1
25,40:1
26,1:3
26,2:10
26,3:1
26,5:5
26,6:3
26,7:9
26,10:7
26,12:2
26,13:2
26,14:5
26,15:2
26,16:3
26,17:7
26,18:5
26,19:1
26,20:7
26,22:6
26,23:3
26,24:6
26,25:9
26,27:3
26,33:9
26,34:5
26,35:4
27,2:7
27,5:2
27,7:6
27,10:4
27,14:2
27,17:4
27,18:2
27,20:4
27,22:3
27,24:3
27,25:6
27,29:6
27,31:1
27,33:6
27,35:1
28,1:5
28,2:12
28,3:3
28,4:1
28,5:7
28,6:5
28,7:11
28,10:9
28,12:4
28,13:4
28,14:7
28,15:4
28,16:5
28,17:9
28,18:7
28,19:3
28,20:9
28,21:2
28,22:8
28,23:5
28,24:8
28,25:11
28,26:2
28,27:5
28,29:11
28,30:2
28,31:6
28,34:7
28,36:3
28,37:1
28,38:2
28,39:6
28,40:12
28,41:4
28,42:4
29,2:1
30,1:3
30,2:10
30,3:1
30,5:5
30,6:3
30,7:9
30,10:7
30,12:2
30,13:2
30,14:5
30,15:2
30,16:3
30,17:7
30,18:5
30,19:1
30,20:7
30,22:6
30,23:3
30,24:6
30,25:9
30,27:3
30,29:9
30,31:4
30,33:9
30,35:4
31,2:6
31,5:1
31,7:5
31,10:3
31,14:1
31,17:3
31,18:1
31,20:3
31,22:2
31,24:2
31,25:5
31,29:5
31,33:5
31,34:1
32,1:4
32,2:11
32,3:2
32,5:6
32,6:4
32,7:10
32,10:8
32,12:3
32,13:3
32,14:6
32,15:3
32,16:4
32,17:8
32,18:6
32,19:2
32,20:8
32,21:1
32,22:7
32,23:4
32,24:7
32,25:10
32,26:1
32,27:4
32,29:10
32,30:1
32,31:5
32,33:10
32,34:6
32,35:5
32,36:2
32,38:1
32,39:5
32,40:11
32,41:3
32,42:3
32,43:3
33,2:1
33,40:1
34,2:5
34,7:4
34,10:2
34,17:2
34,20:2
34,22:1
34,24:1
34,25:4
34,29:4
34,33:4
35,2:6
35,5:1
35,7:5
35,10:3
35,14:1
35,17:3
35,18:1
35,20:3
35,22:2
35,24:2
35,25:5
35,29:5
35,33:5
35,34:1
35,40:6
36,1:2
36,2:9
36,5:4
36,6:2
36,7:8
36,10:6
36,12:1
36,13:1
36,14:4
36,15:1
36,16:2
36,17:6
36,18:4
36,20:6
36,22:5
36,23:2
36,24:5
36,25:8
36,27:2
36,29:8
36,31:3
36,33:8
36,34:4
36,35:3
37,1:4
37,2:11
37,3:2
37,5:6
37,6:4
37,7:10
37,10:8
37,12:3
37,13:3
37,14:6
37,15:3
37,16:4
37,17:8
37,18:6
37,19:2
37,20:8
37,21:1
37,22:7
37,23:4
37,24:7
37,25:10
37,26:1
37,27:4
37,29:10
37,30:1
37,31:5
37,33:10
37,34:6
37,35:5
37,36:2
37,38:1
38,1:3
38,2:10
38,3:1
38,5:5
38,6:3
38,7:9
38,10:7
38,12:2
38,13:2
38,14:5
38,15:2
38,16:3
38,17:7
38,18:5
38,19:1
38,20:7
38,22:6
38,23:3
38,24:6
38,25:9
38,27:3
38,29:9
38,31:4
38,33:9
38,34:5
38,35:4
38,36:1
38,39:4
38,40:10
38,41:2
38,42:2
38,43:2
38,48:4
38,50:4
38,51:4
39,2:6
39,5:1
39,7:5
39,10:3
39,14:1
39,17:3
39,18:1
39,20:3
39,22:2
39,24:2
39,25:5
39,29:5
39,33:5
39,34:1
39,40:6
41,1:1
41,2:8
41,5:3
41,6:1
41,7:7
41,10:5
41,14:3
41,16:1
41,17:5
41,18:3
41,20:5
41,22:4
41,23:1
41,24:4
41,25:7
41,27:1
41,29:7
41,31:2
41,33:7
41,34:3
41,35:2
41,39:2
41,40:8
42,1:1
42,2:8
42,5:3
42,6:1
42,7:7
42,10:5
42,14:3
42,16:1
42,17:5
42,18:3
42,20:5
42,22:4
42,23:1
42,24:4
42,25:7
42,27:1
42,29:7
42,31:2
42,33:7
42,34:3
42,35:2
42,39:2
42,40:8
43,1:1
43,2:8
43,5:3
43,6:1
43,7:7
43,10:5
43,14:3
43,16:1
43,17:5
43,18:3
43,20:5
43,22:4
43,23:1
43,24:4
43,25:7
43,27:1
43,29:7
43,31:2
43,33:7
43,34:3
43,35:2
43,39:2
43,40:8
44,1:5
44,2:12
44,3:3
44,4:1
44,5:7
44,6:5
44,7:11
44,10:9
44,12:4
44,13:4
44,14:7
44,15:4
44,16:5
44,17:9
44,18:7
44,19:3
44,20:9
44,21:2
44,22:8
44,23:5
44,24:8
44,25:11
44,26:2
44,27:5
44,29:11
44,30:2
44,31:6
44,32:1
44,33:11
44,34:7
44,35:6
44,36:3
44,37:1
44,38:2
44,39:6
44,40:12
44,41:4
44,42:4
44,43:4
45,1:4
45,2:11
45,3:2
45,5:6
45,6:4
45,7:10
45,10:8
45,12:3
45,13:3
45,14:6
45,15:3
45,16:4
45,17:8
45,18:6
45,19:2
45,20:8
45,21:1
45,22:7
45,23:4
45,24:7
45,25:10
45,26:1
45,27:4
45,29:10
45,30:1
45,31:5
45,33:10
45,34:6
45,35:5
45,36:2
45,38:1
45,39:5
45,40:11
45,41:3
45,42:3
45,43:3
46,1:4
46,2:11
46,3:2
46,5:6
46,6:4
46,7:10
46,10:8
46,12:3
46,13:3
46,14:6
46,15:3
46,16:4
46,17:8
46,18:6
46,19:2
46,20:8
46,21:1
46,22:7
46,23:4
46,24:7
46,25:10
46,26:1
46,27:4
46,29:10
46,30:1
46,31:5
46,33:10
46,34:6
46,35:5
46,36:2
46,38:1
46,39:5
46,40:11
46,41:3
46,42:3
46,43:3
46,48:5
47,1:3
47,2:10
47,3:1
47,5:5
47,6:3
47,7:9
47,10:7
47,12:2
47,13:2
47,14:5
47,15:2
47,16:3
47,17:7
47,18:5
47,19:1
47,20:7
47,22:6
47,23:3
47,24:6
47,25:9
47,27:3
47,29:9
47,31:4
47,33:9
47,34:5
47,35:4
47,36:1
47,39:4
47,40:10
47,41:2
47,42:2
47,43:2
47,48:4
47,50:4
48,2:6
48,5:1
48,7:5
48,10:3
48,14:1
48,17:3
48,18:1
48,20:3
48,22:2
48,24:2
48,25:5
48,29:5
48,33:5
48,34:1
48,40:6
48,53:1
48,54:4
48,56:4
49,1:4
49,2:11
49,3:2
49,5:6
49,6:4
49,7:10
49,10:8
49,12:3
49,13:3
49,14:6
49,15:3
49,16:4
49,17:8
49,18:6
49,19:2
49,20:8
49,21:1
49,22:7
49,23:4
49,24:7
49,25:10
49,26:1
49,27:4
49,29:10
49,30:1
49,31:5
49,33:10
49,34:6
49,35:5
49,36:2
49,38:1
49,39:5
49,40:11
49,41:3
49,42:3
49,43:3
49,47:1
49,48:5
49,50:5
49,51:5
49,52:5
49,53:6
49,54:9
49,55:11
49,56:9
49,57:11
50,2:6
50,5:1
50,7:5
50,10:3
50,14:1
50,17:3
50,18:1
50,20:3
50,22:2
50,24:2
50,25:5
50,29:5
50,33:5
50,34:1
50,40:6
50,53:1
50,54:4
50,55:6
50,56:4
50,57:6
51,2:6
51,5:1
51,7:5
51,10:3
51,14:1
51,17:3
51,18:1
51,20:3
51,22:2
51,24:2
51,25:5
51,29:5
51,33:5
51,34:1
51,40:6
52,2:6
52,5:1
52,7:5
52,10:3
52,14:1
52,17:3
52,18:1
52,20:3
52,22:2
52,24:2
52,25:5
52,29:5
52,33:5
52,34:1
52,40:6
53,2:5
53,7:4
53,10:2
53,17:2
53,20:2
53,22:1
53,24:1
53,25:4
53,29:4
53,33:4
53,40:5
54,2:2
54,7:1
54,25:1
54,29:1
54,33:1
54,40:2
56,2:2
56,7:1
56,25:1
56,29:1
56,33:1
56,40:2
56,55:2

<end>

<optimal SALBP-1 value>
27


<rand seed>
467321153

<Lower Bounds>
Lm1=26
Lms1=26
Lm2=24
Lm3=24
Lm4=26
Best=26

<Optimal Stations (Iterations: 10)>
35
